NAME : problems/40-tsp/instance-25.tsp
COMMENT : No Comment
TYPE : TSP
DIMENSION: 40
EDGE_WEIGHT_TYPE : EUC_2D
NODE_COORD_SECTION
1 2362 7759 
2 7688 5298 
3 8805 9856 
4 9823 6677 
5 4966 8912 
6 7806 8678 
7 1740 6415 
8 8074 6341 
9 5339 1236 
10 1665 1719 
11 1892 8462 
12 3147 3386 
13 4339 7596 
14 7859 8483 
15 8598 6933 
16 9699 4993 
17 2873 1068 
18 6506 978 
19 9513 6628 
20 6574 1678 
21 7823 9188 
22 968 9244 
23 342 8285 
24 8947 6381 
25 1744 3693 
26 5014 4619 
27 563 3058 
28 7261 7335 
29 5902 6213 
30 986 6458 
31 383 9865 
32 2791 5165 
33 1180 4508 
34 4224 1959 
35 1331 408 
36 3402 7087 
37 1885 7714 
38 632 8130 
39 983 7003 
40 4153 3415 
EOF
